g3 2 1 0	# problem tmp
 10 9 1 0 5	# vars, constraints, objectives, ranges, eqns
 4 1 3 1	# nonlinear constrs, objs; ccons: lin, nonlin
 0 0	# network constraints: nonlinear, linear
 5 5 5	# nonlinear vars in constraints, objectives, both
 0 0 0 1	# linear network variables; functions; arith, flags
 0 0 0 0 0	# discrete variables: binary, integer, nonlinear (b,c,o)
 30 5	# nonzeros in Jacobian, gradients
 0 0	# max name lengths: constraints, variables
 1 0 0 0 0	# common exprs: b,c,o,c1,o1
V10 5 0
0 1
1 1
2 1
3 1
4 1
n0
C0
o0
o2
n2305.1543153651137
o5
v10
n-0.9090909090909091
o2
v1
o2
n-2095.5948321501032
o5
v10
n-1.9090909090909092
C1
o0
o2
n2305.1543153651137
o5
v10
n-0.9090909090909091
o2
v2
o2
n-2095.5948321501032
o5
v10
n-1.9090909090909092
C2
o0
o2
n2305.1543153651137
o5
v10
n-0.9090909090909091
o2
v3
o2
n-2095.5948321501032
o5
v10
n-1.9090909090909092
C3
o0
o2
n2305.1543153651137
o5
v10
n-0.9090909090909091
o2
v4
o2
n-2095.5948321501032
o5
v10
n-1.9090909090909092
C4
n0
C5
n0
C6
n0
C7
n0
C8
n0
O0 0
o1
o2
n0.14265387120129058
o5
v0
n1.8333333333333335
o2
v0
o2
n2305.1543153651137
o5
v10
n-0.9090909090909091
x1
0 75
r
4 8
4 6
4 4
4 2
5 3 2
5 3 3
5 3 4
4 0
5 3 10
b
0 0 150
0 0 150
0 0 150
0 0 150
0 0 150
3
3
3
3
0 0 150
k9
4
8
12
16
21
23
25
27
29
J0 6
0 0
1 -0.23151158235413097
2 0
3 0
4 0
5 1
J1 6
0 0
1 0
2 -0.2
3 0
4 0
6 1
J2 6
0 0
1 0
2 0
3 -0.16725020619007466
4 0
7 1
J3 6
0 0
1 0
2 0
3 0
4 -0.1337480609952844
8 1
J4 1
5 1
J5 1
6 1
J6 1
7 1
J7 2
4 1
9 -1
J8 1
8 1
G0 5
0 10
1 0
2 0
3 0
4 0
